Argumentos: 
./solver.release -i 18 -t 86400 -a 7 -h 86400 -w Testes/R1-i18 -m R1_modeloCom2345.mod -o R1_modeloCom2345.mod 
Seed: 1622927738
hidden-TXT/Sc-n070w4.txt
hidden-TXT/H0-n070w4-2.txt
hidden-TXT/WD-n070w4-3.txt hidden-TXT/WD-n070w4-5.txt hidden-TXT/WD-n070w4-8.txt hidden-TXT/WD-n070w4-2.txt 
Reading model section from R1_modeloCom2345.mod...
367 lines were read
Reading data section from Testes/R1-i18/18.dat...
13093 lines were read
Generating obj...
Generating H1turnoDia...
Generating H2coberturaMinima...
Generating H3AsucessaoTurnos...
Generating H3BsucessaoTurnos...
Generating H4qualificacao...
Generating S1coberturaOtima...
Generating auxS5...
Generating S6a...
Generating S6b...
Generating auxS7...
Generating S7...
Model has been successfully generated
Writing problem data to `Testes/R1-i18/18.lp'...
243827 lines were written
CPX0000  Tried aggregator 2 times.
CPX0000  MIP Presolve eliminated 14102 rows and 58090 columns.
CPX0000  MIP Presolve modified 3777 coefficients.
CPX0000  Aggregator did 1 substitutions.
CPX0000  Reduced MIP has 6836 rows, 14808 columns, and 85886 nonzeros.
CPX0000  Reduced MIP has 14374 binaries, 434 generals, 0 SOSs, and 0 indicators.
CPX0000  Presolve time = 0.16 sec. (109.15 ticks)
CPX0000  Found incumbent of value 60060.000000 after 0.28 sec. (185.68 ticks)
[1m[30m[ZEN] [0m00:00:00 [1m[34m  60060.00[1m[32m  100.00%
[0mCPX0000  Probing time = 0.01 sec. (5.51 ticks)
CPX0000  Tried aggregator 1 time.
CPX0000  MIP Presolve eliminated 10 rows and 0 columns.
CPX0000  Reduced MIP has 6826 rows, 14808 columns, and 85856 nonzeros.
CPX0000  Reduced MIP has 14374 binaries, 434 generals, 0 SOSs, and 0 indicators.
CPX0000  Presolve time = 0.04 sec. (34.71 ticks)
CPX0000  Probing time = 0.01 sec. (5.13 ticks)
CPX0000  Clique table members: 9918.
CPX0000  MIP emphasis: balance optimality and feasibility.
CPX0000  MIP search method: dynamic search.
CPX0000  Parallel mode: none, using 1 thread.
CPX0000  Root relaxation solution time = 0.69 sec. (487.40 ticks)
CPX0000
CPX0000          Nodes                                         Cuts/
CPX0000     Node  Left     Objective  IInf  Best Integer    Best Bound    ItCnt     Gap
CPX0000
CPX0000  *     0+    0                        60060.0000        0.0000     5367  100.00%
CPX0000        0     0      120.0000   522    60060.0000      120.0000     5367   99.80%
CPX0000  *     0+    0                         3420.0000      120.0000     5367   96.49%
[1m[30m[ZEN] [0m00:00:01 [1m[34m   3420.00[1m[32m   96.49%
[0mCPX0000        0     0      120.0000   379     3420.0000     Cuts: 430     6782   96.49%
CPX0000        0     0      120.0000   408     3420.0000     Cuts: 329     7580   96.49%
CPX0000        0     0      120.0000   175     3420.0000      Cuts: 53     8077   96.49%
CPX0000  *     0+    0                          810.0000      120.0000     8077   85.19%
CPX0000  *     0+    0                          590.0000      120.0000     8077   79.66%
CPX0000  *     0+    0                          390.0000      120.0000     8077   69.23%
[1m[30m[ZEN] [0m00:00:03 [1m[34m    390.00[1m[32m   69.23%
[0mCPX0000        0     0      170.0000   245      390.0000     Cuts: 246     8823   56.41%
CPX0000        0     0      180.0000   358      390.0000     Cuts: 202     9763   53.85%
CPX0000        0     0      180.0000   294      390.0000     Cuts: 206    10476   53.85%
CPX0000        0     0      195.0000   256      390.0000     Cuts: 142    11312   50.00%
CPX0000        0     0      210.0000   268      390.0000     Cuts: 117    12179   46.15%
CPX0000        0     0      210.0000   344      390.0000     Cuts: 142    12822   46.15%
CPX0000  *     0+    0                          250.0000      210.0000    12822   16.00%
[1m[30m[ZEN] [0m00:00:06 [1m[34m    250.00[1m[32m   16.00%
[0mCPX0000        0     2      210.0000    14      250.0000      210.0000    12822   16.00%
CPX0000  Elapsed time = 6.73 sec. (4537.54 ticks, tree = 0.00 MB
CPX0000       18    20      210.0000     9      250.0000      210.0000    14539   16.00%
CPX0000       27    29      210.0000   149      250.0000      210.0000    17034   16.00%
CPX0000       33    35      210.0000    56      250.0000      210.0000    18654   16.00%
CPX0000       41    43      210.0000    15      250.0000      210.0000    20095   16.00%
CPX0000       52    54      210.0000    12      250.0000      210.0000    21565   16.00%
CPX0000       61    63      210.0000    10      250.0000      210.0000    23447   16.00%
CPX0000       70    72      210.0000    41      250.0000      210.0000    26054   16.00%
CPX0000       74    76      210.0000    46      250.0000      210.0000    27706   16.00%
CPX0000       81    83      210.0000    94      250.0000      210.0000    29471   16.00%
CPX0000      126   128      210.0000   123      250.0000      210.0000    35541   16.00%
CPX0000  Elapsed time = 11.51 sec. (8007.05 ticks, tree = 4.92 MB
CPX0000      178   180      210.0000    21      250.0000      210.0000    40059   16.00%
CPX0000      243   245      220.0000    62      250.0000      210.0000    46540   16.00%
CPX0000      328   323      210.0000   158      250.0000      210.0000    52776   16.00%
CPX0000      403   398      210.0000    86      250.0000      210.0000    58414   16.00%
CPX0000      453   448      210.0000   105      250.0000      210.0000    64108   16.00%
CPX0000  *   488+  414                          230.0000      210.0000    69252    8.70%
[1m[30m[ZEN] [0m00:00:19 [1m[34m    230.00[1m[32m    8.70%
[0mCPX0000      489   417      210.0000   122      230.0000      210.0000    69461    8.70%
CPX0000  *   490+    0                          210.0000      210.0000    80348    0.00%
CPX0000      490     0        cutoff            210.0000      210.0000    80348    0.00%
CPX0000
CPX0000  GUB cover cuts applied:  39
CPX0000  Clique cuts applied:  74
CPX0000  Zero-half cuts applied:  10
CPX0000  Gomory fractional cuts applied:  2
CPX0000
CPX0000  Root node processing (before b&c):
CPX0000    Real time             =    6.70 sec. (4513.16 ticks)
CPX0000  Sequential b&c:
CPX0000    Real time             =   20.78 sec. (15542.77 ticks)
CPX0000                            ------------
CPX0000  Total (root+branch&cut) =   27.48 sec. (20055.92 ticks)
[1m[30m[ZEN] [0m00:00:27 [1m[34m    210.00[1m[32m    0.00%
[0mH2 understaffing: 0
H3 shiftTypeSuccessions: 0
S1 optimalCoverage: 60
S2a consecutiveShift: 12585 = (822,17 )
S2b consecutiveWorkingDays: 22860 = ( 609,153 )
S3 consecutiveDaysOff: 17160 = ( 561,11 )
S4 preferences: 0
S5 completeWeekend: 0
S6 totalAssignments: 120
S7 totalWorkingWeekeends: 30
 

Cost Solution: 52815

      |M|T|W|T|F|S|S| |M|T|W|T|F|S|S| |M|T|W|T|F|S|S| |M|T|W|T|F|S|S|
-----------------------------------------------------------------------
HN_0  |-|D|E|-|E|-|L| |N|-|E|L|-|-|-| |L|L|-|E|-|-|-| |L|-|-|-|-|-|-|
HN_1  |E|D|E|-|E|L|N| |-|L|L|-|-|-|-| |-|E|-|L|-|-|-| |E|L|-|-|D|L|L|
HN_2  |L|N|-|L|N|-|-| |L|-|N|-|D|-|-| |-|-|L|-|D|L|N| |N|-|D|-|-|E|D|
HN_3  |-|E|N|-|-|-|-| |E|-|-|-|-|-|-| |N|-|L|N|N|-|L| |-|E|L|-|L|-|-|
HN_4  |E|E|L|L|-|E|D| |-|D|-|E|-|N|N| |-|E|N|-|D|-|-| |-|-|D|D|-|-|-|
HN_5  |-|-|-|-|D|-|-| |L|L|-|-|D|-|L| |-|-|-|D|D|-|-| |D|L|-|E|D|-|-|
HN_6  |D|N|-|-|E|-|-| |-|-|E|E|E|D|E| |-|D|D|-|-|E|E| |N|-|N|-|D|-|-|
HN_7  |L|-|-|E|L|-|-| |N|-|L|-|D|E|D| |D|L|-|N|-|-|-| |D|N|N|-|N|-|-|
NU_8  |L|-|L|-|L|-|-| |D|E|-|E|D|N|N| |-|E|E|N|-|L|L| |-|E|-|-|-|-|-|
NU_9  |D|D|-|D|-|D|D| |E|N|-|-|-|-|-| |-|-|-|L|L|-|-| |E|L|N|-|D|N|N|
NU_10 |D|E|E|D|L|-|-| |N|-|N|N|-|N|N| |N|-|-|E|-|-|-| |D|-|L|N|-|-|-|
NU_11 |N|N|N|N|N|-|-| |E|D|E|N|N|N|N| |-|D|D|-|L|-|-| |E|D|E|E|D|E|D|
NU_12 |-|D|-|E|E|-|-| |N|-|D|E|D|-|-| |L|-|L|L|L|-|-| |D|L|-|D|E|-|-|
NU_13 |-|D|D|-|-|-|-| |-|-|N|N|-|-|-| |L|L|-|E|-|-|-| |-|L|L|N|-|-|E|
NU_14 |E|D|-|E|D|-|-| |-|-|-|-|N|-|-| |D|E|-|N|-|N|N| |-|L|-|E|E|D|L|
NU_15 |E|L|L|-|E|-|-| |L|N|N|N|-|-|-| |-|L|L|-|E|-|-| |N|N|N|-|E|-|-|
NU_16 |L|-|L|L|-|-|-| |L|N|-|D|L|L|L| |L|-|D|E|-|-|-| |E|E|E|-|-|-|-|
NU_17 |-|L|-|E|-|-|-| |-|N|-|-|D|-|E| |D|N|N|-|E|-|-| |-|L|-|L|-|-|-|
NU_18 |-|D|-|-|L|-|-| |E|D|D|D|E|E|D| |E|D|D|L|-|-|-| |N|N|-|-|-|-|-|
NU_19 |D|E|-|-|D|E|E| |E|D|D|-|-|-|-| |N|-|-|N|-|-|-| |-|E|D|L|-|E|L|
NU_20 |E|E|D|D|L|-|-| |N|N|-|E|D|E|E| |E|E|N|N|N|-|-| |L|N|-|D|E|L|N|
NU_21 |N|-|-|D|-|-|-| |-|-|D|-|-|-|-| |N|-|E|D|E|-|-| |-|D|E|E|-|-|E|
NU_22 |N|N|N|-|D|E|D| |-|E|E|E|E|-|-| |E|E|E|L|L|-|-| |E|D|E|E|E|E|E|
NU_23 |-|L|-|E|N|-|-| |-|-|-|D|E|D|E| |D|N|-|D|L|-|-| |D|L|N|-|N|-|-|
NU_24 |-|D|-|N|-|-|-| |-|D|L|-|E|-|-| |-|-|L|L|N|-|-| |L|N|-|-|-|-|D|
NU_25 |D|E|D|E|L|L|L| |L|L|L|L|N|-|-| |L|N|-|E|D|N|N| |-|D|D|D|L|-|-|
NU_26 |E|E|D|E|D|-|-| |E|D|N|-|N|-|-| |D|D|E|E|E|E|E| |E|L|L|N|-|D|D|
NU_27 |-|E|E|E|E|D|E| |D|D|L|L|L|L|L| |L|N|N|N|-|-|-| |D|D|E|E|D|-|-|
NU_28 |-|-|-|D|D|D|D| |D|D|L|-|-|E|D| |E|-|-|N|N|-|-| |N|-|D|-|L|-|-|
NU_29 |E|E|E|L|-|-|-| |-|E|D|L|L|L|L| |-|-|D|E|D|-|-| |D|D|-|-|-|-|-|
NU_30 |L|-|L|L|-|-|-| |E|E|L|-|D|-|-| |E|D|L|-|D|D|E| |D|L|-|D|-|-|-|
NU_31 |-|D|E|D|D|E|N| |N|-|D|E|D|-|-| |E|D|E|D|E|D|D| |D|E|L|L|L|-|-|
NU_32 |-|N|N|-|-|-|-| |-|D|L|-|-|E|D| |N|-|N|-|D|-|-| |N|-|N|-|N|-|-|
NU_33 |-|D|N|N|N|-|-| |L|L|N|N|-|D|E| |D|E|E|E|D|D|D| |E|D|L|N|N|-|-|
NU_34 |N|N|-|N|-|-|-| |-|-|E|D|-|-|D| |-|-|E|D|-|-|-| |N|N|-|L|-|-|-|
NU_35 |-|N|N|-|D|D|E| |-|N|-|L|N|-|-| |-|-|-|L|L|-|-| |D|E|L|L|L|-|-|
NU_36 |L|N|N|N|-|N|-| |D|-|L|L|L|-|-| |-|D|-|D|-|-|-| |-|E|E|L|-|-|-|
NU_37 |E|E|-|N|-|-|-| |D|E|E|E|-|-|-| |N|-|D|L|-|L|N| |-|N|-|E|D|-|-|
NU_38 |N|-|E|E|E|-|-| |D|-|D|E|L|-|-| |-|D|-|-|-|-|-| |L|-|-|L|-|-|-|
NU_39 |E|L|L|L|N|-|-| |D|E|E|E|L|-|-| |L|-|E|-|N|-|-| |L|-|L|-|-|-|-|
CT_40 |L|L|L|L|N|-|-| |L|-|N|-|E|-|-| |D|-|E|-|N|-|-| |N|N|-|E|D|-|-|
CT_41 |L|L|-|D|-|-|-| |L|-|-|-|L|-|-| |E|D|-|N|-|-|-| |L|-|D|E|-|-|-|
CT_42 |L|L|L|L|L|N|N| |-|E|-|E|L|L|L| |L|L|L|L|N|-|-| |N|N|N|N|N|-|-|
CT_43 |N|-|E|-|E|-|-| |D|-|-|L|N|-|-| |-|-|L|-|-|-|L| |L|-|E|D|-|-|-|
CT_44 |L|L|L|L|L|-|-| |L|L|N|N|-|-|-| |E|E|D|E|D|L|L| |N|-|D|E|L|L|L|
CT_45 |L|L|L|L|L|L|L| |-|N|-|D|D|-|-| |D|E|D|D|N|-|-| |E|D|D|D|D|L|L|
CT_46 |N|N|N|N|N|N|N| |N|N|-|N|N|-|-| |N|N|N|N|N|-|-| |L|-|E|D|E|L|L|
CT_47 |N|-|D|D|D|L|L| |-|-|N|-|D|D|E| |-|L|L|-|L|-|-| |-|-|L|-|E|-|-|
CT_48 |D|L|-|D|-|-|-| |-|D|E|L|-|-|-| |D|-|L|L|L|N|N| |N|-|-|D|E|-|-|
CT_49 |E|-|D|L|N|-|-| |E|D|E|E|D|E|D| |E|D|D|D|D|D|D| |E|E|-|E|L|-|-|
CT_50 |N|-|-|-|D|-|-| |-|L|-|-|L|-|-| |L|L|N|-|E|-|E| |-|-|L|-|L|-|-|
CT_51 |-|N|-|D|-|-|-| |-|-|-|-|E|-|-| |-|D|-|N|N|-|-| |L|-|D|D|N|-|E|
CT_52 |E|N|-|-|E|D|D| |-|L|-|L|-|-|-| |E|E|L|L|-|-|-| |N|N|-|L|N|-|-|
CT_53 |N|N|-|D|D|-|-| |E|E|D|L|L|-|-| |E|D|E|N|N|N|N| |-|D|E|D|E|N|N|
CT_54 |E|E|N|N|N|-|-| |D|E|-|D|E|N|N| |N|N|-|D|E|D|D| |N|N|N|N|N|-|-|
CT_55 |D|E|D|E|E|-|-| |D|L|N|-|N|-|-| |D|E|D|E|E|E|L| |L|L|N|N|-|D|L|
CT_56 |D|D|D|E|E|D|N| |-|N|N|N|N|-|-| |N|N|N|-|D|E|E| |E|E|N|N|N|-|-|
CT_57 |L|-|E|-|-|-|-| |L|L|-|D|N|-|-| |L|L|-|D|D|-|-| |-|L|-|E|L|N|N|
CT_58 |D|-|L|-|L|-|-| |-|D|L|-|L|L|L| |L|-|-|L|L|-|-| |D|-|L|-|D|E|D|
CT_59 |N|-|D|E|-|-|-| |-|-|E|D|N|N|N| |N|N|N|-|-|-|-| |-|D|E|D|N|-|-|
TR_60 |L|L|N|N|-|D|D| |E|D|D|E|E|L|L| |N|N|N|N|N|-|-| |-|E|D|L|L|-|-|
TR_61 |-|-|E|-|L|-|-| |L|-|-|L|-|L|-| |-|L|-|L|-|-|-| |L|L|N|-|E|-|-|
TR_62 |-|E|E|-|N|N|N| |-|E|E|D|L|-|-| |D|D|D|D|E|D|L| |L|N|N|-|E|L|N|
TR_63 |-|L|-|-|D|-|-| |E|D|-|N|-|-|-| |-|E|L|-|E|-|-| |-|D|-|E|-|-|E|
TR_64 |-|E|D|L|-|-|-| |-|E|-|D|D|D|E| |-|L|-|-|L|-|-| |D|E|L|-|-|E|E|
TR_65 |-|L|L|L|L|-|-| |D|L|L|-|D|E|E| |E|D|L|N|-|E|L| |N|N|-|-|-|-|-|
TR_66 |E|-|L|-|E|-|-| |E|-|L|-|E|-|-| |L|-|-|N|-|L|-| |-|L|-|-|D|-|-|
TR_67 |N|-|D|D|-|-|-| |-|-|-|-|-|-|-| |L|-|L|-|N|-|-| |L|L|-|E|N|-|D|
TR_68 |E|N|-|-|-|E|L| |L|-|-|L|N|-|-| |E|-|-|L|-|D|E| |E|E|E|N|-|-|-|
TR_69 |D|D|N|-|D|L|L| |N|-|N|N|N|N|N| |-|E|E|D|D|-|-| |D|D|D|D|L|-|-|


Hard constraint violations
--------------------------

Minimal coverage constraints: 0
Required skill constraints: 0
Illegal shift type succession constraints: 0
Single assignment per day: 0


Cost per constraint type
------------------------

Total assignment constraints: 120
Consecutive constraints: 35445
Non working days constraints: 17160
Preferences: 0
Max working weekend: 30
Complete weekends: 0
Optimal coverage constraints: 60

------------------------

Total cost: 52815
